c this is nonogram instance
p cnf 680
t00 t01 0
t10 t11 0
t20 0
t30 t31 0
t40 t41 0
t50 0
t60 t61 0
t70 t71 t72 t73 0
t80 0
t90 t91 0
t100 t101 0
t110 t111 t112 t113 t114 0
t120 t121 0
t130 t131 t132 t133 t134 0
t140 t141 t142 t143 0
t150 t151 0
t160 t161 t162 t163 t164 t165 0
t170 0
t180 t181 t182 t183 t184 t185 0
t190 t191 t192 t193 t194 t195 0
t200 t201 t202 t203 0
t210 t211 0
t220 t221 t222 t223 t224 0
t230 t231 0
t240 t241 0
t250 t251 t252 t253 0
t260 0
t270 t271 0
t280 t281 t282 t283 t284 t285 0
t290 0
t300 t301 0
t310 t311 0
t320 0
t330 t331 0
t340 t341 0
t350 t351 0
t360 t361 0
t370 t371 t372 t373 0
t380 t381 t382 t383 t384 t385 0
t390 t391 t392 t393 t394 t395 0
t400 t401 0
t410 t411 t412 t413 0
t420 0
t430 t431 0
t440 t441 0
t450 t451 t452 t453 t454 0
t460 t461 0
t470 t471 t472 t473 t474 t475 0
t480 0
t490 0
t500 0
t510 0
t520 0
t530 t531 0
t540 t541 t542 t543 t544 0
t550 t551 0
t560 t561 0
t570 0
t580 0
t590 t591 0
t600 t601 t602 t603 0
t610 0
t620 t621 t622 t623 t624 t625 0
t630 t631 t632 t633 0
t640 t641 0
t650 t651 t652 t653 t654 0
t660 t661 t662 t663 0
t670 0
t680 0
t00 -t00 0
t01 -t01 0
t10 -t10 0
t11 -t11 0
t20 -t20 0
t30 -t30 0
t31 -t31 0
t40 -t40 0
t41 -t41 0
t50 -t50 0
t60 -t60 0
t61 -t61 0
t70 -t70 0
t71 -t71 0
t72 -t72 0
t73 -t73 0
t80 -t80 0
t90 -t90 0
t91 -t91 0
t100 -t100 0
t101 -t101 0
t110 -t110 0
t111 -t111 0
t112 -t112 0
t113 -t113 0
t114 -t114 0
t120 -t120 0
t121 -t121 0
t130 -t130 0
t131 -t131 0
t132 -t132 0
t133 -t133 0
t134 -t134 0
t140 -t140 0
t141 -t141 0
t142 -t142 0
t143 -t143 0
t150 -t150 0
t151 -t151 0
t160 -t160 0
t161 -t161 0
t162 -t162 0
t163 -t163 0
t164 -t164 0
t165 -t165 0
t170 -t170 0
t180 -t180 0
t181 -t181 0
t182 -t182 0
t183 -t183 0
t184 -t184 0
t185 -t185 0
t190 -t190 0
t191 -t191 0
t192 -t192 0
t193 -t193 0
t194 -t194 0
t195 -t195 0
t200 -t200 0
t201 -t201 0
t202 -t202 0
t203 -t203 0
t210 -t210 0
t211 -t211 0
t220 -t220 0
t221 -t221 0
t222 -t222 0
t223 -t223 0
t224 -t224 0
t230 -t230 0
t231 -t231 0
t240 -t240 0
t241 -t241 0
t250 -t250 0
t251 -t251 0
t252 -t252 0
t253 -t253 0
t260 -t260 0
t270 -t270 0
t271 -t271 0
t280 -t280 0
t281 -t281 0
t282 -t282 0
t283 -t283 0
t284 -t284 0
t285 -t285 0
t290 -t290 0
t300 -t300 0
t301 -t301 0
t310 -t310 0
t311 -t311 0
t320 -t320 0
t330 -t330 0
t331 -t331 0
t340 -t340 0
t341 -t341 0
t350 -t350 0
t351 -t351 0
t360 -t360 0
t361 -t361 0
t370 -t370 0
t371 -t371 0
t372 -t372 0
t373 -t373 0
t380 -t380 0
t381 -t381 0
t382 -t382 0
t383 -t383 0
t384 -t384 0
t385 -t385 0
t390 -t390 0
t391 -t391 0
t392 -t392 0
t393 -t393 0
t394 -t394 0
t395 -t395 0
t400 -t400 0
t401 -t401 0
t410 -t410 0
t411 -t411 0
t412 -t412 0
t413 -t413 0
t420 -t420 0
t430 -t430 0
t431 -t431 0
t440 -t440 0
t441 -t441 0
t450 -t450 0
t451 -t451 0
t452 -t452 0
t453 -t453 0
t454 -t454 0
t460 -t460 0
t461 -t461 0
t470 -t470 0
t471 -t471 0
t472 -t472 0
t473 -t473 0
t474 -t474 0
t475 -t475 0
t480 -t480 0
t490 -t490 0
t500 -t500 0
t510 -t510 0
t520 -t520 0
t530 -t530 0
t531 -t531 0
t540 -t540 0
t541 -t541 0
t542 -t542 0
t543 -t543 0
t544 -t544 0
t550 -t550 0
t551 -t551 0
t560 -t560 0
t561 -t561 0
t570 -t570 0
t580 -t580 0
t590 -t590 0
t591 -t591 0
t600 -t600 0
t601 -t601 0
t602 -t602 0
t603 -t603 0
t610 -t610 0
t620 -t620 0
t621 -t621 0
t622 -t622 0
t623 -t623 0
t624 -t624 0
t625 -t625 0
t630 -t630 0
t631 -t631 0
t632 -t632 0
t633 -t633 0
t640 -t640 0
t641 -t641 0
t650 -t650 0
t651 -t651 0
t652 -t652 0
t653 -t653 0
t654 -t654 0
t660 -t660 0
t661 -t661 0
t662 -t662 0
t663 -t663 0
t670 -t670 0
t680 -t680 0
